sing20181016.12
TTAA 66121 48698
99008 28238 19504 00097 27035 19505 92783 22027 14005
85515 17619 15010 70152 09433 10508 50588 04956 09011
40760 15159 08509 30971 30568 00508 25097 41544 09022
20245 53911 11026 15423 69344 09030 10657 81556 08523
88999
77999=
TTDD 6612/ 48698
11890 83750 22860 82757 33808 72764 44775 70771 55582
75564 66550 75765 77430 68774 88409 62379 99387 61778
11362 52783 22329 49984 33291 54181 44258 49384 55227
52382 66162 49584 77135 41789 88117 41590 99048 33594
21212 11967 05525 22851 06530 33791 12017 44751 10010
55705 16001 66629 10509 77588 13021 88532 08040 99489
09560 11469 08569 22394 08077 33349 08537 44331 13019
55314 18014 66292 19511 77286 24506 88276 31003 99271
27010 11262 26030 22233 25551 33196 28042 44161 26534
55151 27530 66144 26028 77123 28038 88101 26539 99082
28039 11069 27537 22058 29042 33053 31033 44048 29515=
